
;this file is automatically generated: Fri Mar 24 17:55:11 GMT 2017

;declarations generated

(declare-fun type_cfa4d0f5_bf50_4b7f_860f_6b95c3a1f997_B ( Int) Bool )
(declare-fun type_d79ce9a8_d619_4001_a47a_12a6e1b2cc3a_A ( Int) Bool )
(declare-fun oclExcludes ( Int Int) Bool )
(declare-fun obj_7a3c1fd3_dc6c_41cf_9963_32bd467b614d ( Int) Int )
(declare-fun oclSelect ( Int Bool) Int )
(declare-fun Cardinality ( Int) Int )
(declare-fun type_c1936952_38a2_440a_b4b4_653bd3d3e411_D ( Int) Bool )
(declare-fun container_ ( Int) Int )
(declare-fun type_d6afe430_4575_488e_a17e_6b17ed7ce189_C ( Int) Bool )
(declare-fun oclIncludes ( Int Int) Bool )
(declare-fun aux1 () Int )
(declare-fun aux0 () Int )
(declare-fun aux3 () Int )
(declare-fun aux2 () Int )
(declare-fun aux4 () Int )
(declare-fun weight4 () Int )
(declare-fun weight3 () Int )
(declare-fun ObjAt ( Int Int) Int )
(declare-fun weight2 () Int )
(declare-fun weight1 () Int )
(declare-fun weight0 () Int )

;formula(s) generated
(assert (and (>= aux0 0) (<= aux0 1)))
(assert (or (or (forall ((b Int)) (=> (and ( type_cfa4d0f5_bf50_4b7f_860f_6b95c3a1f997_B b )  ( type_d79ce9a8_d619_4001_a47a_12a6e1b2cc3a_A b ) ) (forall ((c Int)) (=> (and ( type_d6afe430_4575_488e_a17e_6b17ed7ce189_C c )  ( type_d79ce9a8_d619_4001_a47a_12a6e1b2cc3a_A c ) ) (not (= ( obj_7a3c1fd3_dc6c_41cf_9963_32bd467b614d b )  ( obj_7a3c1fd3_dc6c_41cf_9963_32bd467b614d c ) ) ))))) (and (= aux0 1) true)) (and (= aux0 0) false)))
(assert (and (=> (= aux0 0) (= weight0 1)) (=> (= aux0 1) (= weight0 0))))
(assert (and (>= aux1 0) (<= aux1 1)))
(assert (and (>= aux2 0) (<= aux2 1)))
(assert (and (>= aux3 0) (<= aux3 1)))
(assert (and (>= aux4 0) (<= aux4 1)))
(assert (or (or (exists ((p Int)) ( type_d79ce9a8_d619_4001_a47a_12a6e1b2cc3a_A ( obj_7a3c1fd3_dc6c_41cf_9963_32bd467b614d p )  ) ) (and (= aux1 1) true)) (and (= aux1 0) false)))
(assert (and (=> (= aux1 0) (= weight1 1)) (=> (= aux1 1) (= weight1 0))))
(assert (or (or (exists ((p Int)) (and ( type_cfa4d0f5_bf50_4b7f_860f_6b95c3a1f997_B ( obj_7a3c1fd3_dc6c_41cf_9963_32bd467b614d p )  )  ( type_d79ce9a8_d619_4001_a47a_12a6e1b2cc3a_A ( obj_7a3c1fd3_dc6c_41cf_9963_32bd467b614d p )  ) )) (and (= aux2 1) true)) (and (= aux2 0) false)))
(assert (and (=> (= aux2 0) (= weight2 1)) (=> (= aux2 1) (= weight2 0))))
(assert (or (or (exists ((p Int)) (and ( type_d6afe430_4575_488e_a17e_6b17ed7ce189_C ( obj_7a3c1fd3_dc6c_41cf_9963_32bd467b614d p )  )  ( type_d79ce9a8_d619_4001_a47a_12a6e1b2cc3a_A ( obj_7a3c1fd3_dc6c_41cf_9963_32bd467b614d p )  ) )) (and (= aux3 1) true)) (and (= aux3 0) false)))
(assert (and (=> (= aux3 0) (= weight3 1)) (=> (= aux3 1) (= weight3 0))))
(assert (or (or (exists ((p Int)) (and (and (and ( type_c1936952_38a2_440a_b4b4_653bd3d3e411_D ( obj_7a3c1fd3_dc6c_41cf_9963_32bd467b614d p )  )  ( type_d79ce9a8_d619_4001_a47a_12a6e1b2cc3a_A ( obj_7a3c1fd3_dc6c_41cf_9963_32bd467b614d p )  ) ) ( type_cfa4d0f5_bf50_4b7f_860f_6b95c3a1f997_B ( obj_7a3c1fd3_dc6c_41cf_9963_32bd467b614d p )  ) ) ( type_d6afe430_4575_488e_a17e_6b17ed7ce189_C ( obj_7a3c1fd3_dc6c_41cf_9963_32bd467b614d p )  ) )) (and (= aux4 1) true)) (and (= aux4 0) false)))
(assert (and (=> (= aux4 0) (= weight4 1)) (=> (= aux4 1) (= weight4 0))))
(assert (= (+ (+ (+ (+ aux0 aux1) aux2) aux3) aux4) 0))

 ;end of formula 